Hello World
So, here's lemon !
We have a directed graph with 2 nodes  and 1 arcs.
Now let's test CPLEX
Tried aggregator 1 time.
No LP presolve or aggregator reductions.
Presolve time = 0.00 sec. (0.00 ticks)

Iteration log . . .
Iteration:     1   Dual infeasibility =             0.000000
Iteration:     2   Dual objective     =           202.500000
Solution status = Optimal
Solution value = 202.5
Values = [40, 17.5, 42.5]
Very simple test of the Bin-Packing MIP Solver (2 buckets of capacity 5 and 2 objects of size 3 as well as 4 of size 2)
Tried aggregator 2 times.
MIP Presolve eliminated 3 rows and 7 columns.
MIP Presolve added 1 rows and 1 columns.
Aggregator did 6 substitutions.
All rows and columns eliminated.
Presolve time = 0.00 sec. (0.02 ticks)

Root node processing (before b&c):
  Real time             =    0.00 sec. (0.02 ticks)
Parallel b&c, 8 threads:
  Real time             =    0.00 sec. (0.00 ticks)
  Sync time (average)   =    0.00 sec.
  Wait time (average)   =    0.00 sec.
                          ------------
Total (root+branch&cut) =    0.00 sec. (0.02 ticks)
Solution status = Optimal
Solution value  = 6
Solvable ? : true
Bin : 1
2
4
5
Bin : 2
0
1
3
Solvable ? : false
Bin : 1
0
1
Bin : 2
2
3
4
(3.000000, 5.000000)
(0.000000, 0.000000)
File size : 511
NAME : P-n22-k2
COMMENT : (Augerat et al, No of trucks: 2, Optimal value: 216)
TYPE : CVRP
DIMENSION : 22
EDGE_WEIGHT_TYPE : EUC_2D
CAPACITY : 160
NODE_COORD_SECTION
1 30 40
2 37 52
3 49 49
4 52 64
5 31 62
6 52 33
7 42 41
8 52 41
9 57 58
10 62 42
11 42 57
12 27 68
13 43 67
14 58 48
15 58 27
16 37 69
17 38 46
18 61 33
19 62 63
20 63 69
21 45 35
22 56 37
DEMAND_SECTION
1 0
2 7
3 30
4 16
5 23
6 11
7 19
8 15
9 28
10 8
11 8
12 7
13 14
14 6
15 19
16 11
17 12
18 26
19 17
20 6
21 15
22 10
DEPOT_SECTION
 1
 -1
EOF

22
 2
 EUC_2D
1 30 40
1 : 30 : 40
2 37 52
2 : 37 : 52
3 49 49
3 : 49 : 49
4 52 64
4 : 52 : 64
5 31 62
5 : 31 : 62
6 52 33
6 : 52 : 33
7 42 41
7 : 42 : 41
8 52 41
8 : 52 : 41
9 57 58
9 : 57 : 58
10 62 42
10 : 62 : 42
11 42 57
11 : 42 : 57
12 27 68
12 : 27 : 68
13 43 67
13 : 43 : 67
14 58 48
14 : 58 : 48
15 58 27
15 : 58 : 27
16 37 69
16 : 37 : 69
17 38 46
17 : 38 : 46
18 61 33
18 : 61 : 33
19 62 63
19 : 62 : 63
20 63 69
20 : 63 : 69
21 45 35
21 : 45 : 35
22 56 37
22 : 56 : 37
1 0
1 : 0
1
2 7
2 : 7
2
3 30
3 : 30
3
4 16
4 : 16
4
5 23
5 : 23
5
6 11
6 : 11
6
7 19
7 : 19
7
8 15
8 : 15
8
9 28
9 : 28
9
10 8
10 : 8
10
11 8
11 : 8
11
12 7
12 : 7
12
13 14
13 : 14
13
14 6
14 : 6
14
15 19
15 : 19
15
16 11
16 : 11
16
17 12
17 : 12
17
18 26
18 : 26
18
19 17
19 : 17
19
20 6
20 : 6
20
21 15
21 : 15
21
22 10
22 : 10
22
Finish
File size : 577
NAME : P-n16-k8-t
COMMENT : (Augerat et al, No of trucks: 8, No of skills: 2, Optimal value: ??)
TYPE : CVRP
DIMENSION : 16
EDGE_WEIGHT_TYPE : EUC_2D
CAPACITY : 35
TECHNICIANS_SECTION:
3 01
4 10
1 11
NODE_COORD_SECTION
1 30 40
2 37 52
3 49 49
4 52 64
5 31 62
6 52 33
7 42 41
8 52 41
9 57 58
10 62 42
11 42 57
12 27 68
13 43 67
14 58 48
15 58 27
16 37 69
DEMAND_SECTION
1 0
2 19
3 30
4 16
5 23
6 11
7 31
8 15
9 28
10 8
11 8
12 7
13 14
14 6
15 19
16 11
SKILL_SECTION
1 00
2 10
3 10
4 10
5 10
6 01
7 01
8 10
9 11
10 01
11 01
12 11
13 01
14 01
15 01
16 01
DEPOT_SECTION
 1
 -1
EOF

16
 8
 EUC_2D
1 30 40
1 : 30 : 40
2 37 52
2 : 37 : 52
3 49 49
3 : 49 : 49
4 52 64
4 : 52 : 64
5 31 62
5 : 31 : 62
6 52 33
6 : 52 : 33
7 42 41
7 : 42 : 41
8 52 41
8 : 52 : 41
9 57 58
9 : 57 : 58
10 62 42
10 : 62 : 42
11 42 57
11 : 42 : 57
12 27 68
12 : 27 : 68
13 43 67
13 : 43 : 67
14 58 48
14 : 58 : 48
15 58 27
15 : 58 : 27
16 37 69
16 : 37 : 69
1 0
1 : 0
1
2 19
2 : 19
2
3 30
3 : 30
3
4 16
4 : 16
4
5 23
5 : 23
5
6 11
6 : 11
6
7 31
7 : 31
7
8 15
8 : 15
8
9 28
9 : 28
9
10 8
10 : 8
10
11 8
11 : 8
11
12 7
12 : 7
12
13 14
13 : 14
13
14 6
14 : 6
14
15 19
15 : 19
15
16 11
16 : 11
16
Finish
(52.000000, 33.000000) : (57.000000, 58.000000)
Number of vehicles : 2
Tried aggregator 2 times.
MIP Presolve eliminated 0 rows and 6 columns.
MIP Presolve added 1 rows and 1 columns.
Aggregator did 21 substitutions.
Reduced MIP has 3 rows, 16 columns, and 33 nonzeros.
Reduced MIP has 9 binaries, 7 generals, 0 SOSs, and 0 indicators.
Presolve time = 0.00 sec. (0.06 ticks)
Found incumbent of value 21.000000 after 0.00 sec. (0.08 ticks)

Root node processing (before b&c):
  Real time             =    0.00 sec. (0.08 ticks)
Parallel b&c, 8 threads:
  Real time             =    0.00 sec. (0.00 ticks)
  Sync time (average)   =    0.00 sec.
  Wait time (average)   =    0.00 sec.
                          ------------
Total (root+branch&cut) =    0.00 sec. (0.08 ticks)
Solution status = Optimal
Solution value  = 21
302.129
Tried aggregator 2 times.
MIP Presolve eliminated 0 rows and 6 columns.
MIP Presolve added 1 rows and 1 columns.
Aggregator did 21 substitutions.
Reduced MIP has 3 rows, 16 columns, and 33 nonzeros.
Reduced MIP has 9 binaries, 7 generals, 0 SOSs, and 0 indicators.
Presolve time = 0.00 sec. (0.06 ticks)
Found incumbent of value 21.000000 after 0.00 sec. (0.08 ticks)

Root node processing (before b&c):
  Real time             =    0.00 sec. (0.08 ticks)
Parallel b&c, 8 threads:
  Real time             =    0.00 sec. (0.00 ticks)
  Sync time (average)   =    0.00 sec.
  Wait time (average)   =    0.00 sec.
                          ------------
Total (root+branch&cut) =    0.00 sec. (0.08 ticks)
Solution status = Optimal
Solution value  = 21
302.129
0
Done
true
sol : 264.992

Tried aggregator 1 time.
MIP Presolve eliminated 76 rows and 67 columns.
MIP Presolve modified 30 coefficients.
Reduced MIP has 330 rows, 816 columns, and 2802 nonzeros.
Reduced MIP has 576 binaries, 0 generals, 0 SOSs, and 0 indicators.
Presolve time = 0.00 sec. (1.56 ticks)
Found incumbent of value 759.839323 after 0.01 sec. (4.73 ticks)
Probing fixed 0 vars, tightened 76 bounds.
Probing time = 0.01 sec. (5.47 ticks)
Cover probing fixed 5 vars, tightened 154 bounds.
Tried aggregator 2 times.
MIP Presolve eliminated 9 rows and 14 columns.
MIP Presolve modified 127 coefficients.
Aggregator did 3 substitutions.
Reduced MIP has 318 rows, 799 columns, and 2779 nonzeros.
Reduced MIP has 568 binaries, 0 generals, 0 SOSs, and 0 indicators.
Presolve time = 0.00 sec. (3.35 ticks)
Probing fixed 52 vars, tightened 52 bounds.
Probing time = 0.01 sec. (4.55 ticks)
Cover probing fixed 1 vars, tightened 127 bounds.
Clique table members: 2001.
MIP emphasis: balance optimality and feasibility.
MIP search method: dynamic search.
Parallel mode: deterministic, using up to 8 threads.
Root relaxation solution time = 0.01 sec. (4.30 ticks)

        Nodes                                         Cuts/
   Node  Left     Objective  IInf  Best Integer    Best Bound    ItCnt     Gap

*     0+    0                          759.8393        0.0000           100.00%
      0     0      414.9208    40      759.8393      414.9208      431   45.39%
*     0+    0                          515.3794      414.9208            19.49%
      0     0      425.0604    53      515.3794      Cuts: 61      577   17.52%
*     0+    0                          454.3983      425.0604             6.46%
      0     0      428.4708    49      454.3983      Cuts: 61      691    5.71%
      0     0      429.9869    60      454.3983      Cuts: 55      778    5.37%
*     0+    0                          451.9471      429.9869             4.86%

Repeating presolve.
Tried aggregator 3 times.
MIP Presolve eliminated 92 rows and 247 columns.
MIP Presolve modified 315 coefficients.
Aggregator did 6 substitutions.
Reduced MIP has 220 rows, 546 columns, and 1873 nonzeros.
Reduced MIP has 407 binaries, 0 generals, 0 SOSs, and 0 indicators.
Presolve time = 0.00 sec. (2.54 ticks)
Probing fixed 80 vars, tightened 20 bounds.
Probing changed sense of 1 constraints.
Probing time = 0.00 sec. (2.09 ticks)
Tried aggregator 1 time.
MIP Presolve eliminated 32 rows and 115 columns.
MIP Presolve modified 3 coefficients.
Reduced MIP has 188 rows, 431 columns, and 1452 nonzeros.
Reduced MIP has 312 binaries, 0 generals, 0 SOSs, and 0 indicators.
Presolve time = 0.00 sec. (1.26 ticks)
Probing time = 0.00 sec. (1.69 ticks)
Tried aggregator 1 time.
Reduced MIP has 188 rows, 431 columns, and 1452 nonzeros.
Reduced MIP has 312 binaries, 0 generals, 0 SOSs, and 0 indicators.
Presolve time = 0.00 sec. (0.98 ticks)
Represolve time = 0.02 sec. (12.11 ticks)
Probing time = 0.00 sec. (1.71 ticks)
Clique table members: 1089.
MIP emphasis: balance optimality and feasibility.
MIP search method: dynamic search.
Parallel mode: deterministic, using up to 8 threads.
Root relaxation solution time = 0.01 sec. (9.30 ticks)

        Nodes                                         Cuts/
   Node  Left     Objective  IInf  Best Integer    Best Bound    ItCnt     Gap

*     0+    0                          451.9471      429.9869             4.86%
      0     0      430.1065    58      451.9471      430.1065     1287    4.83%
      0     0      430.6024    59      451.9471      Cuts: 57     1335    4.72%
      0     0      431.3931    52      451.9471      Cuts: 34     1390    4.55%
      0     0      431.4822    58      451.9471      Cuts: 21     1416    4.53%
      0     0      431.5058    63      451.9471      Cuts: 14     1433    4.52%
      0     0      431.5228    61      451.9471       Cuts: 9     1441    4.52%
      0     0      431.7193    63      451.9471       Cuts: 5     1460    4.48%
      0     0      431.8209    55      451.9471      Cuts: 13     1481    4.45%
      0     0      431.8281    60      451.9471       Cuts: 7     1491    4.45%
      0     2      431.8281    60      451.9471      431.8281     1491    4.45%
Elapsed time = 3.12 sec. (242.50 ticks, tree = 0.01 MB, solutions = 11)
*  1124+  560                          451.3351      435.5228             3.50%
   2120   997      448.6745    24      451.3351      438.3057    58846    2.89%
   4391  1359      450.1053    20      451.3351      443.2262   127595    1.80%

Cover cuts applied:  7
Implied bound cuts applied:  96
Flow cuts applied:  26
Mixed integer rounding cuts applied:  42
Zero-half cuts applied:  7
Multi commodity flow cuts applied:  4
Lift and project cuts applied:  20
Gomory fractional cuts applied:  5

Root node processing (before b&c):
  Real time             =    2.95 sec. (242.35 ticks)
Parallel b&c, 8 threads:
  Real time             =    7.38 sec. (674.45 ticks)
  Sync time (average)   =    3.39 sec.
  Wait time (average)   =    0.01 sec.
                          ------------
Total (root+branch&cut) =   10.33 sec. (916.80 ticks)
x0,1,3[0..1]  : -0
x0,1,4[0..1]  : 0
x0,1,5[0..1]  : 0
x0,1,6[0..1]  : -0
x0,1,7[0..1]  : 1
x0,2,3[0..1]  : 1
x0,2,4[0..1]  : 0
x0,2,5[0..1]  : 0
x0,2,6[0..1]  : 0
x0,2,7[0..1]  : 0
x0,3,3[0..1]  : -0
x0,3,4[0..1]  : -0
x0,3,5[0..1]  : -0
x0,3,6[0..1]  : -0
x0,3,7[0..1]  : 1
x0,4,3[0..1]  : -0
x0,4,4[0..1]  : -0
x0,4,5[0..1]  : -0
x0,4,6[0..1]  : -0
x0,4,7[0..1]  : -0
x0,5,0[0..1]  : -0
x0,5,1[0..1]  : -0
x0,5,2[0..1]  : -0
x0,5,7[0..1]  : -0
x0,6,0[0..1]  : 1
x0,6,1[0..1]  : -0
x0,6,2[0..1]  : -0
x0,6,7[0..1]  : -0
x0,7,3[0..1]  : 0
x0,7,4[0..1]  : -0
x0,7,5[0..1]  : 0
x0,7,6[0..1]  : 0
x0,7,7[0..1]  : 1
x0,8,7[0..1]  : 1
x0,9,0[0..1]  : -0
x0,9,1[0..1]  : -0
x0,9,2[0..1]  : -0
x0,9,7[0..1]  : -0
x0,10,0[0..1]  : 0
x0,10,1[0..1]  : -0
x0,10,2[0..1]  : -0
x0,10,7[0..1]  : -0
x0,11,7[0..1]  : 1
x0,12,0[0..1]  : -0
x0,12,1[0..1]  : -0
x0,12,2[0..1]  : -0
x0,12,7[0..1]  : -0
x0,13,0[0..1]  : -0
x0,13,1[0..1]  : 0
x0,13,2[0..1]  : -0
x0,13,7[0..1]  : -0
x0,14,0[0..1]  : -0
x0,14,1[0..1]  : -0
x0,14,2[0..1]  : -0
x0,14,7[0..1]  : -0
x0,15,0[0..1]  : -0
x0,15,1[0..1]  : -0
x0,15,2[0..1]  : 1
x0,15,7[0..1]  : -0
x1,0,3[0..1]  : 0
x1,0,4[0..1]  : -0
x1,0,5[0..1]  : -0
x1,0,6[0..1]  : 0
x1,0,7[0..1]  : 1
x1,2,3[0..1]  : -0
x1,2,4[0..1]  : -0
x1,2,5[0..1]  : -0
x1,2,6[0..1]  : -0
x1,2,7[0..1]  : -0
x1,3,3[0..1]  : -0
x1,3,4[0..1]  : -0
x1,3,5[0..1]  : -0
x1,3,6[0..1]  : -0
x1,3,7[0..1]  : -0
x1,4,3[0..1]  : -0
x1,4,4[0..1]  : -0
x1,4,5[0..1]  : -0
x1,4,6[0..1]  : -0
x1,4,7[0..1]  : -0
x1,5,7[0..1]  : -0
x1,6,7[0..1]  : -0
x1,7,3[0..1]  : -0
x1,7,4[0..1]  : -0
x1,7,5[0..1]  : -0
x1,7,6[0..1]  : -0
x1,7,7[0..1]  : -0
x1,8,7[0..1]  : 0
x1,9,7[0..1]  : -0
x1,10,7[0..1]  : -0
x1,11,7[0..1]  : 0
x1,12,7[0..1]  : -0
x1,13,7[0..1]  : -0
x1,14,7[0..1]  : -0
x1,15,7[0..1]  : -0
x2,0,3[0..1]  : 1
x2,0,4[0..1]  : -0
x2,0,5[0..1]  : -0
x2,0,6[0..1]  : -0
x2,0,7[0..1]  : -0
x2,1,3[0..1]  : -0
x2,1,4[0..1]  : -0
x2,1,5[0..1]  : -0
x2,1,6[0..1]  : -0
x2,1,7[0..1]  : -0
x2,3,3[0..1]  : -0
x2,3,4[0..1]  : -0
x2,3,5[0..1]  : -0
x2,3,6[0..1]  : -0
x2,3,7[0..1]  : -0
x2,4,3[0..1]  : -0
x2,4,4[0..1]  : -0
x2,4,5[0..1]  : -0
x2,4,6[0..1]  : -0
x2,4,7[0..1]  : -0
x2,5,7[0..1]  : -0
x2,6,7[0..1]  : -0
x2,7,3[0..1]  : -0
x2,7,4[0..1]  : -0
x2,7,5[0..1]  : -0
x2,7,6[0..1]  : -0
x2,7,7[0..1]  : -0
x2,8,7[0..1]  : -0
x2,9,7[0..1]  : -0
x2,10,7[0..1]  : -0
x2,11,7[0..1]  : -0
x2,12,7[0..1]  : -0
x2,13,7[0..1]  : -0
x2,14,7[0..1]  : -0
x2,15,7[0..1]  : -0
x3,0,3[0..1]  : 0
x3,0,4[0..1]  : 0
x3,0,5[0..1]  : 0
x3,0,6[0..1]  : 0
x3,0,7[0..1]  : -0
x3,1,3[0..1]  : -0
x3,1,4[0..1]  : 0
x3,1,5[0..1]  : 0
x3,1,6[0..1]  : -0
x3,1,7[0..1]  : -0
x3,2,3[0..1]  : -0
x3,2,4[0..1]  : -0
x3,2,5[0..1]  : -0
x3,2,6[0..1]  : -0
x3,2,7[0..1]  : -0
x3,4,3[0..1]  : -0
x3,4,4[0..1]  : -0
x3,4,5[0..1]  : -0
x3,4,6[0..1]  : -0
x3,4,7[0..1]  : -0
x3,5,7[0..1]  : -0
x3,6,7[0..1]  : -0
x3,7,3[0..1]  : -0
x3,7,4[0..1]  : -0
x3,7,5[0..1]  : -0
x3,7,6[0..1]  : -0
x3,7,7[0..1]  : -0
x3,8,7[0..1]  : -0
x3,9,7[0..1]  : 1
x3,10,7[0..1]  : 0
x3,11,7[0..1]  : -0
x3,12,7[0..1]  : 0
x3,13,7[0..1]  : -0
x3,14,7[0..1]  : -0
x3,15,7[0..1]  : 0
x4,0,3[0..1]  : -0
x4,0,4[0..1]  : -0
x4,0,5[0..1]  : -0
x4,0,6[0..1]  : -0
x4,0,7[0..1]  : 1
x4,1,3[0..1]  : -0
x4,1,4[0..1]  : -0
x4,1,5[0..1]  : -0
x4,1,6[0..1]  : -0
x4,1,7[0..1]  : -0
x4,2,3[0..1]  : -0
x4,2,4[0..1]  : -0
x4,2,5[0..1]  : -0
x4,2,6[0..1]  : -0
x4,2,7[0..1]  : -0
x4,3,3[0..1]  : -0
x4,3,4[0..1]  : -0
x4,3,5[0..1]  : -0
x4,3,6[0..1]  : -0
x4,3,7[0..1]  : -0
x4,5,7[0..1]  : -0
x4,6,7[0..1]  : -0
x4,7,3[0..1]  : -0
x4,7,4[0..1]  : -0
x4,7,5[0..1]  : -0
x4,7,6[0..1]  : -0
x4,7,7[0..1]  : -0
x4,8,7[0..1]  : -0
x4,9,7[0..1]  : -0
x4,10,7[0..1]  : 0
x4,11,7[0..1]  : -0
x4,12,7[0..1]  : -0
x4,13,7[0..1]  : -0
x4,14,7[0..1]  : -0
x4,15,7[0..1]  : 0
x5,0,0[0..1]  : 0
x5,0,1[0..1]  : -0
x5,0,2[0..1]  : -0
x5,0,7[0..1]  : 1
x5,1,7[0..1]  : -0
x5,2,7[0..1]  : -0
x5,3,7[0..1]  : -0
x5,4,7[0..1]  : -0
x5,6,0[0..1]  : -0
x5,6,1[0..1]  : -0
x5,6,2[0..1]  : -0
x5,6,7[0..1]  : -0
x5,7,7[0..1]  : -0
x5,8,7[0..1]  : -0
x5,9,0[0..1]  : -0
x5,9,1[0..1]  : -0
x5,9,2[0..1]  : -0
x5,9,7[0..1]  : -0
x5,10,0[0..1]  : -0
x5,10,1[0..1]  : -0
x5,10,2[0..1]  : -0
x5,10,7[0..1]  : -0
x5,11,7[0..1]  : -0
x5,12,0[0..1]  : -0
x5,12,1[0..1]  : -0
x5,12,2[0..1]  : -0
x5,12,7[0..1]  : -0
x5,13,0[0..1]  : -0
x5,13,1[0..1]  : 0
x5,13,2[0..1]  : -0
x5,13,7[0..1]  : -0
x5,14,0[0..1]  : -0
x5,14,1[0..1]  : -0
x5,14,2[0..1]  : 0
x5,14,7[0..1]  : -0
x5,15,0[0..1]  : -0
x5,15,1[0..1]  : -0
x5,15,2[0..1]  : -0
x5,15,7[0..1]  : -0
x6,0,0[0..1]  : 1
x6,0,1[0..1]  : -0
x6,0,2[0..1]  : -0
x6,0,7[0..1]  : -0
x6,1,7[0..1]  : -0
x6,2,7[0..1]  : -0
x6,3,7[0..1]  : -0
x6,4,7[0..1]  : -0
x6,5,0[0..1]  : -0
x6,5,1[0..1]  : -0
x6,5,2[0..1]  : -0
x6,5,7[0..1]  : -0
x6,7,7[0..1]  : -0
x6,8,7[0..1]  : -0
x6,9,0[0..1]  : -0
x6,9,1[0..1]  : -0
x6,9,2[0..1]  : -0
x6,9,7[0..1]  : -0
x6,10,0[0..1]  : -0
x6,10,1[0..1]  : -0
x6,10,2[0..1]  : -0
x6,10,7[0..1]  : -0
x6,11,7[0..1]  : -0
x6,12,0[0..1]  : -0
x6,12,1[0..1]  : -0
x6,12,2[0..1]  : -0
x6,12,7[0..1]  : -0
x6,13,0[0..1]  : -0
x6,13,1[0..1]  : -0
x6,13,2[0..1]  : -0
x6,13,7[0..1]  : -0
x6,14,0[0..1]  : -0
x6,14,1[0..1]  : -0
x6,14,2[0..1]  : -0
x6,14,7[0..1]  : -0
x6,15,0[0..1]  : -0
x6,15,1[0..1]  : -0
x6,15,2[0..1]  : -0
x6,15,7[0..1]  : -0
x7,0,3[0..1]  : -0
x7,0,4[0..1]  : 0
x7,0,5[0..1]  : -0
x7,0,6[0..1]  : -0
x7,0,7[0..1]  : 0
x7,1,3[0..1]  : -0
x7,1,4[0..1]  : 0
x7,1,5[0..1]  : 0
x7,1,6[0..1]  : -0
x7,1,7[0..1]  : -0
x7,2,3[0..1]  : -0
x7,2,4[0..1]  : -0
x7,2,5[0..1]  : -0
x7,2,6[0..1]  : -0
x7,2,7[0..1]  : -0
x7,3,3[0..1]  : -0
x7,3,4[0..1]  : -0
x7,3,5[0..1]  : -0
x7,3,6[0..1]  : -0
x7,3,7[0..1]  : -0
x7,4,3[0..1]  : -0
x7,4,4[0..1]  : -0
x7,4,5[0..1]  : -0
x7,4,6[0..1]  : -0
x7,4,7[0..1]  : -0
x7,5,7[0..1]  : -0
x7,6,7[0..1]  : -0
x7,8,7[0..1]  : -0
x7,9,7[0..1]  : -0
x7,10,7[0..1]  : -0
x7,11,7[0..1]  : -0
x7,12,7[0..1]  : 0
x7,13,7[0..1]  : 0
x7,14,7[0..1]  : 1
x7,15,7[0..1]  : 0
x8,0,7[0..1]  : 0
x8,1,7[0..1]  : -0
x8,2,7[0..1]  : -0
x8,3,7[0..1]  : -0
x8,4,7[0..1]  : -0
x8,5,7[0..1]  : -0
x8,6,7[0..1]  : -0
x8,7,7[0..1]  : -0
x8,9,7[0..1]  : -0
x8,10,7[0..1]  : -0
x8,11,7[0..1]  : -0
x8,12,7[0..1]  : -0
x8,13,7[0..1]  : 1
x8,14,7[0..1]  : -0
x8,15,7[0..1]  : -0
x9,0,0[0..1]  : 0
x9,0,1[0..1]  : 0
x9,0,2[0..1]  : 0
x9,0,7[0..1]  : -0
x9,1,7[0..1]  : -0
x9,2,7[0..1]  : -0
x9,3,7[0..1]  : 0
x9,4,7[0..1]  : -0
x9,5,0[0..1]  : 0
x9,5,1[0..1]  : 0
x9,5,2[0..1]  : 0
x9,5,7[0..1]  : 1
x9,6,0[0..1]  : -0
x9,6,1[0..1]  : -0
x9,6,2[0..1]  : -0
x9,6,7[0..1]  : -0
x9,7,7[0..1]  : -0
x9,8,7[0..1]  : -0
x9,10,0[0..1]  : -0
x9,10,1[0..1]  : -0
x9,10,2[0..1]  : -0
x9,10,7[0..1]  : -0
x9,11,7[0..1]  : -0
x9,12,0[0..1]  : 0
x9,12,1[0..1]  : 0
x9,12,2[0..1]  : 0
x9,12,7[0..1]  : 0
x9,13,0[0..1]  : -0
x9,13,1[0..1]  : -0
x9,13,2[0..1]  : -0
x9,13,7[0..1]  : -0
x9,14,0[0..1]  : -0
x9,14,1[0..1]  : -0
x9,14,2[0..1]  : 0
x9,14,7[0..1]  : -0
x9,15,0[0..1]  : 0
x9,15,1[0..1]  : 0
x9,15,2[0..1]  : 0
x9,15,7[0..1]  : 0
x10,0,0[0..1]  : 0
x10,0,1[0..1]  : 0
x10,0,2[0..1]  : 1
x10,0,7[0..1]  : 0
x10,1,7[0..1]  : 0
x10,2,7[0..1]  : -0
x10,3,7[0..1]  : -0
x10,4,7[0..1]  : -0
x10,5,0[0..1]  : -0
x10,5,1[0..1]  : -0
x10,5,2[0..1]  : -0
x10,5,7[0..1]  : -0
x10,6,0[0..1]  : -0
x10,6,1[0..1]  : -0
x10,6,2[0..1]  : -0
x10,6,7[0..1]  : -0
x10,7,7[0..1]  : -0
x10,8,7[0..1]  : -0
x10,9,0[0..1]  : -0
x10,9,1[0..1]  : -0
x10,9,2[0..1]  : -0
x10,9,7[0..1]  : -0
x10,11,7[0..1]  : -0
x10,12,0[0..1]  : -0
x10,12,1[0..1]  : -0
x10,12,2[0..1]  : 0
x10,12,7[0..1]  : -0
x10,13,0[0..1]  : -0
x10,13,1[0..1]  : -0
x10,13,2[0..1]  : -0
x10,13,7[0..1]  : -0
x10,14,0[0..1]  : -0
x10,14,1[0..1]  : -0
x10,14,2[0..1]  : -0
x10,14,7[0..1]  : -0
x10,15,0[0..1]  : 0
x10,15,1[0..1]  : -0
x10,15,2[0..1]  : -0
x10,15,7[0..1]  : -0
x11,0,7[0..1]  : -0
x11,1,7[0..1]  : 0
x11,2,7[0..1]  : -0
x11,3,7[0..1]  : -0
x11,4,7[0..1]  : 1
x11,5,7[0..1]  : -0
x11,6,7[0..1]  : -0
x11,7,7[0..1]  : -0
x11,8,7[0..1]  : -0
x11,9,7[0..1]  : -0
x11,10,7[0..1]  : -0
x11,12,7[0..1]  : -0
x11,13,7[0..1]  : -0
x11,14,7[0..1]  : -0
x11,15,7[0..1]  : 0
x12,0,0[0..1]  : -0
x12,0,1[0..1]  : -0
x12,0,2[0..1]  : 0
x12,0,7[0..1]  : -0
x12,1,7[0..1]  : 0
x12,2,7[0..1]  : -0
x12,3,7[0..1]  : -0
x12,4,7[0..1]  : -0
x12,5,0[0..1]  : -0
x12,5,1[0..1]  : -0
x12,5,2[0..1]  : -0
x12,5,7[0..1]  : -0
x12,6,0[0..1]  : -0
x12,6,1[0..1]  : -0
x12,6,2[0..1]  : -0
x12,6,7[0..1]  : -0
x12,7,7[0..1]  : -0
x12,8,7[0..1]  : -0
x12,9,0[0..1]  : 0
x12,9,1[0..1]  : -0
x12,9,2[0..1]  : -0
x12,9,7[0..1]  : 0
x12,10,0[0..1]  : -0
x12,10,1[0..1]  : 0
x12,10,2[0..1]  : 1
x12,10,7[0..1]  : 0
x12,11,7[0..1]  : -0
x12,13,0[0..1]  : -0
x12,13,1[0..1]  : -0
x12,13,2[0..1]  : -0
x12,13,7[0..1]  : -0
x12,14,0[0..1]  : -0
x12,14,1[0..1]  : -0
x12,14,2[0..1]  : -0
x12,14,7[0..1]  : -0
x12,15,0[0..1]  : 0
x12,15,1[0..1]  : 0
x12,15,2[0..1]  : -0
x12,15,7[0..1]  : 0
x13,0,0[0..1]  : -0
x13,0,1[0..1]  : -0
x13,0,2[0..1]  : -0
x13,0,7[0..1]  : 1
x13,1,7[0..1]  : 0
x13,2,7[0..1]  : -0
x13,3,7[0..1]  : 0
x13,4,7[0..1]  : -0
x13,5,0[0..1]  : -0
x13,5,1[0..1]  : -0
x13,5,2[0..1]  : -0
x13,5,7[0..1]  : -0
x13,6,0[0..1]  : -0
x13,6,1[0..1]  : -0
x13,6,2[0..1]  : -0
x13,6,7[0..1]  : -0
x13,7,7[0..1]  : 0
x13,8,7[0..1]  : 0
x13,9,0[0..1]  : -0
x13,9,1[0..1]  : -0
x13,9,2[0..1]  : 0
x13,9,7[0..1]  : 0
x13,10,0[0..1]  : -0
x13,10,1[0..1]  : -0
x13,10,2[0..1]  : -0
x13,10,7[0..1]  : -0
x13,11,7[0..1]  : -0
x13,12,0[0..1]  : 0
x13,12,1[0..1]  : 0
x13,12,2[0..1]  : 0
x13,12,7[0..1]  : -0
x13,14,0[0..1]  : -0
x13,14,1[0..1]  : -0
x13,14,2[0..1]  : -0
x13,14,7[0..1]  : -0
x13,15,0[0..1]  : 0
x13,15,1[0..1]  : 0
x13,15,2[0..1]  : 0
x13,15,7[0..1]  : -0
x14,0,0[0..1]  : 0
x14,0,1[0..1]  : 0
x14,0,2[0..1]  : -0
x14,0,7[0..1]  : 1
x14,1,7[0..1]  : -0
x14,2,7[0..1]  : -0
x14,3,7[0..1]  : -0
x14,4,7[0..1]  : -0
x14,5,0[0..1]  : 0
x14,5,1[0..1]  : 0
x14,5,2[0..1]  : 0
x14,5,7[0..1]  : 0
x14,6,0[0..1]  : -0
x14,6,1[0..1]  : -0
x14,6,2[0..1]  : -0
x14,6,7[0..1]  : -0
x14,7,7[0..1]  : -0
x14,8,7[0..1]  : -0
x14,9,0[0..1]  : 0
x14,9,1[0..1]  : 0
x14,9,2[0..1]  : 0
x14,9,7[0..1]  : 0
x14,10,0[0..1]  : -0
x14,10,1[0..1]  : -0
x14,10,2[0..1]  : -0
x14,10,7[0..1]  : -0
x14,11,7[0..1]  : -0
x14,12,0[0..1]  : -0
x14,12,1[0..1]  : -0
x14,12,2[0..1]  : -0
x14,12,7[0..1]  : -0
x14,13,0[0..1]  : -0
x14,13,1[0..1]  : 0
x14,13,2[0..1]  : -0
x14,13,7[0..1]  : -0
x14,15,0[0..1]  : -0
x14,15,1[0..1]  : -0
x14,15,2[0..1]  : -0
x14,15,7[0..1]  : -0
x15,0,0[0..1]  : 0
x15,0,1[0..1]  : -0
x15,0,2[0..1]  : 0
x15,0,7[0..1]  : -0
x15,1,7[0..1]  : -0
x15,2,7[0..1]  : -0
x15,3,7[0..1]  : 0
x15,4,7[0..1]  : 0
x15,5,0[0..1]  : -0
x15,5,1[0..1]  : -0
x15,5,2[0..1]  : -0
x15,5,7[0..1]  : -0
x15,6,0[0..1]  : -0
x15,6,1[0..1]  : -0
x15,6,2[0..1]  : -0
x15,6,7[0..1]  : -0
x15,7,7[0..1]  : -0
x15,8,7[0..1]  : -0
x15,9,0[0..1]  : 0
x15,9,1[0..1]  : -0
x15,9,2[0..1]  : -0
x15,9,7[0..1]  : -0
x15,10,0[0..1]  : -0
x15,10,1[0..1]  : -0
x15,10,2[0..1]  : -0
x15,10,7[0..1]  : 0
x15,11,7[0..1]  : 0
x15,12,0[0..1]  : 0
x15,12,1[0..1]  : 0
x15,12,2[0..1]  : 1
x15,12,7[0..1]  : 0
x15,13,0[0..1]  : 0
x15,13,1[0..1]  : -0
x15,13,2[0..1]  : -0
x15,13,7[0..1]  : -0
x15,14,0[0..1]  : -0
x15,14,1[0..1]  : -0
x15,14,2[0..1]  : -0
x15,14,7[0..1]  : -0
y0,1[0 .. inf]  : 35
y0,2[0 .. inf]  : 35
y0,3[0 .. inf]  : 35
y0,4[0 .. inf]  : 0
y0,5[0 .. inf]  : 0
y0,6[0 .. inf]  : 35
y0,7[0 .. inf]  : 35
y0,8[0 .. inf]  : 35
y0,9[0 .. inf]  : 0
y0,10[0 .. inf]  : 0
y0,11[0 .. inf]  : 35
y0,12[0 .. inf]  : 0
y0,13[0 .. inf]  : 0
y0,14[0 .. inf]  : 0
y0,15[0 .. inf]  : 35
y1,0[0 .. inf]  : 16
y1,2[0 .. inf]  : 0
y1,3[0 .. inf]  : 0
y1,4[0 .. inf]  : 0
y1,5[0 .. inf]  : 0
y1,6[0 .. inf]  : 0
y1,7[0 .. inf]  : 0
y1,8[0 .. inf]  : 0
y1,9[0 .. inf]  : 0
y1,10[0 .. inf]  : 0
y1,11[0 .. inf]  : 0
y1,12[0 .. inf]  : 0
y1,13[0 .. inf]  : 0
y1,14[0 .. inf]  : 0
y1,15[0 .. inf]  : 0
y2,0[0 .. inf]  : 5
y2,1[0 .. inf]  : 0
y2,3[0 .. inf]  : 0
y2,4[0 .. inf]  : 0
y2,5[0 .. inf]  : 0
y2,6[0 .. inf]  : 0
y2,7[0 .. inf]  : 0
y2,8[0 .. inf]  : 0
y2,9[0 .. inf]  : 0
y2,10[0 .. inf]  : 0
y2,11[0 .. inf]  : 0
y2,12[0 .. inf]  : 0
y2,13[0 .. inf]  : 0
y2,14[0 .. inf]  : 0
y2,15[0 .. inf]  : 0
y3,0[0 .. inf]  : 0
y3,1[0 .. inf]  : 0
y3,2[0 .. inf]  : 0
y3,4[0 .. inf]  : 0
y3,5[0 .. inf]  : 0
y3,6[0 .. inf]  : 0
y3,7[0 .. inf]  : 0
y3,8[0 .. inf]  : 0
y3,9[0 .. inf]  : 19
y3,10[0 .. inf]  : 0
y3,11[0 .. inf]  : 0
y3,12[0 .. inf]  : 0
y3,13[0 .. inf]  : 0
y3,14[0 .. inf]  : 0
y3,15[0 .. inf]  : 0
y4,0[0 .. inf]  : 5
y4,1[0 .. inf]  : 0
y4,2[0 .. inf]  : 0
y4,3[0 .. inf]  : 0
y4,5[0 .. inf]  : 0
y4,6[0 .. inf]  : 0
y4,7[0 .. inf]  : 0
y4,8[0 .. inf]  : 0
y4,9[0 .. inf]  : 0
y4,10[0 .. inf]  : 0
y4,11[0 .. inf]  : 0
y4,12[0 .. inf]  : 0
y4,13[0 .. inf]  : 0
y4,14[0 .. inf]  : 0
y4,15[0 .. inf]  : 0
y5,0[0 .. inf]  : 0
y5,1[0 .. inf]  : 0
y5,2[0 .. inf]  : 0
y5,3[0 .. inf]  : 0
y5,4[0 .. inf]  : 0
y5,6[0 .. inf]  : 0
y5,7[0 .. inf]  : 0
y5,8[0 .. inf]  : 0
y5,9[0 .. inf]  : 0
y5,10[0 .. inf]  : 0
y5,11[0 .. inf]  : 0
y5,12[0 .. inf]  : 0
y5,13[0 .. inf]  : 0
y5,14[0 .. inf]  : 0
y5,15[0 .. inf]  : 0
y6,0[0 .. inf]  : 4
y6,1[0 .. inf]  : 0
y6,2[0 .. inf]  : 0
y6,3[0 .. inf]  : 0
y6,4[0 .. inf]  : 0
y6,5[0 .. inf]  : 0
y6,7[0 .. inf]  : 0
y6,8[0 .. inf]  : 0
y6,9[0 .. inf]  : 0
y6,10[0 .. inf]  : 0
y6,11[0 .. inf]  : 0
y6,12[0 .. inf]  : 0
y6,13[0 .. inf]  : 0
y6,14[0 .. inf]  : 0
y6,15[0 .. inf]  : 0
y7,0[0 .. inf]  : 0
y7,1[0 .. inf]  : 0
y7,2[0 .. inf]  : 0
y7,3[0 .. inf]  : 0
y7,4[0 .. inf]  : 0
y7,5[0 .. inf]  : 0
y7,6[0 .. inf]  : 0
y7,8[0 .. inf]  : 0
y7,9[0 .. inf]  : 0
y7,10[0 .. inf]  : 0
y7,11[0 .. inf]  : 0
y7,12[0 .. inf]  : 0
y7,13[0 .. inf]  : 0
y7,14[0 .. inf]  : 20
y7,15[0 .. inf]  : 0
y8,0[0 .. inf]  : 0
y8,1[0 .. inf]  : 0
y8,2[0 .. inf]  : 0
y8,3[0 .. inf]  : 0
y8,4[0 .. inf]  : 0
y8,5[0 .. inf]  : 0
y8,6[0 .. inf]  : 0
y8,7[0 .. inf]  : 0
y8,9[0 .. inf]  : 0
y8,10[0 .. inf]  : 0
y8,11[0 .. inf]  : 0
y8,12[0 .. inf]  : 0
y8,13[0 .. inf]  : 7
y8,14[0 .. inf]  : 0
y8,15[0 .. inf]  : 0
y9,0[0 .. inf]  : 0
y9,1[0 .. inf]  : 0
y9,2[0 .. inf]  : 0
y9,3[0 .. inf]  : 0
y9,4[0 .. inf]  : 0
y9,5[0 .. inf]  : 11
y9,6[0 .. inf]  : 0
y9,7[0 .. inf]  : 0
y9,8[0 .. inf]  : 0
y9,10[0 .. inf]  : 0
y9,11[0 .. inf]  : 0
y9,12[0 .. inf]  : 0
y9,13[0 .. inf]  : 0
y9,14[0 .. inf]  : 0
y9,15[0 .. inf]  : 0
y10,0[0 .. inf]  : 2
y10,1[0 .. inf]  : 0
y10,2[0 .. inf]  : 0
y10,3[0 .. inf]  : 0
y10,4[0 .. inf]  : 0
y10,5[0 .. inf]  : 0
y10,6[0 .. inf]  : 0
y10,7[0 .. inf]  : 0
y10,8[0 .. inf]  : 0
y10,9[0 .. inf]  : 0
y10,11[0 .. inf]  : 0
y10,12[0 .. inf]  : 0
y10,13[0 .. inf]  : 0
y10,14[0 .. inf]  : 0
y10,15[0 .. inf]  : 0
y11,0[0 .. inf]  : 0
y11,1[0 .. inf]  : 0
y11,2[0 .. inf]  : 0
y11,3[0 .. inf]  : 0
y11,4[0 .. inf]  : 28
y11,5[0 .. inf]  : 0
y11,6[0 .. inf]  : 0
y11,7[0 .. inf]  : 0
y11,8[0 .. inf]  : 0
y11,9[0 .. inf]  : 0
y11,10[0 .. inf]  : 0
y11,12[0 .. inf]  : 0
y11,13[0 .. inf]  : 0
y11,14[0 .. inf]  : 0
y11,15[0 .. inf]  : 0
y12,0[0 .. inf]  : 0
y12,1[0 .. inf]  : 0
y12,2[0 .. inf]  : 0
y12,3[0 .. inf]  : 0
y12,4[0 .. inf]  : 0
y12,5[0 .. inf]  : 0
y12,6[0 .. inf]  : 0
y12,7[0 .. inf]  : 0
y12,8[0 .. inf]  : 0
y12,9[0 .. inf]  : 0
y12,10[0 .. inf]  : 10
y12,11[0 .. inf]  : 0
y12,13[0 .. inf]  : 0
y12,14[0 .. inf]  : 0
y12,15[0 .. inf]  : 0
y13,0[0 .. inf]  : 1
y13,1[0 .. inf]  : 0
y13,2[0 .. inf]  : 0
y13,3[0 .. inf]  : 0
y13,4[0 .. inf]  : 0
y13,5[0 .. inf]  : 0
y13,6[0 .. inf]  : 0
y13,7[0 .. inf]  : 0
y13,8[0 .. inf]  : 0
y13,9[0 .. inf]  : 0
y13,10[0 .. inf]  : 0
y13,11[0 .. inf]  : 0
y13,12[0 .. inf]  : 0
y13,14[0 .. inf]  : 0
y13,15[0 .. inf]  : 0
y14,0[0 .. inf]  : 1
y14,1[0 .. inf]  : 0
y14,2[0 .. inf]  : 0
y14,3[0 .. inf]  : 0
y14,4[0 .. inf]  : 0
y14,5[0 .. inf]  : 0
y14,6[0 .. inf]  : 0
y14,7[0 .. inf]  : 0
y14,8[0 .. inf]  : 0
y14,9[0 .. inf]  : 0
y14,10[0 .. inf]  : 0
y14,11[0 .. inf]  : 0
y14,12[0 .. inf]  : 0
y14,13[0 .. inf]  : 0
y14,15[0 .. inf]  : 0
y15,0[0 .. inf]  : 0
y15,1[0 .. inf]  : 0
y15,2[0 .. inf]  : 0
y15,3[0 .. inf]  : 0
y15,4[0 .. inf]  : 0
y15,5[0 .. inf]  : 0
y15,6[0 .. inf]  : 0
y15,7[0 .. inf]  : 0
y15,8[0 .. inf]  : 0
y15,9[0 .. inf]  : 0
y15,10[0 .. inf]  : 0
y15,11[0 .. inf]  : 0
y15,12[0 .. inf]  : 24
y15,13[0 .. inf]  : 0
y15,14[0 .. inf]  : 0
